50
1 1349 1587
2 1606 1774
3 843 1036
4 295 471
5 492 574
6 218 417
7 584 526
8 1406 1562
9 1610 1409
10 1857 53
11 116 474
12 1766 954
13 1906 111
14 642 728
15 250 208
16 56 1929
17 492 283
18 447 1395
19 1837 527
20 377 29
21 1313 1428
22 980 1749
23 1064 3
24 1120 1900
25 743 1390
26 1282 1384
27 369 376
28 282 925
29 62 25
30 1255 1854
31 1219 947
32 1419 193
33 1269 1918
34 634 1398
35 823 1271
36 66 1314
37 1489 967
38 608 184
39 1176 334
40 1472 1501
41 745 1225
42 1454 964
43 820 1535
44 1792 768
45 915 1611
46 218 1711
47 1107 955
48 1996 523
49 1176 697
50 832 365
